c 
c G(k,n,p) graph
c graph gen seed     : 5821
c number of vertices : 80
c max number of edges: 1600
c number of classes  : 2
c edge density       : 0.200000
c edge probability   : 0.400000
c data structure     : sparse
c
c           Graph Stats
c number of vertices  : 80
c nonisolated vertices: 80
c number of edges     : 655
c edge density        : 0.207278
c max degree          : 23
c avg degree          : 16.38
c min degree          : 10
p col 80 655
e 1 79
e 1 78
e 1 77
e 1 75
e 1 71
e 1 67
e 1 66
e 1 60
e 1 56
e 1 55
e 1 31
e 1 22
e 1 21
e 1 13
e 1 9
e 1 7
e 2 79
e 2 77
e 2 71
e 2 66
e 2 60
e 2 57
e 2 51
e 2 44
e 2 32
e 2 30
e 2 28
e 2 27
e 2 26
e 2 25
e 2 24
e 2 15
e 2 11
e 2 9
e 2 7
e 3 72
e 3 69
e 3 65
e 3 54
e 3 48
e 3 39
e 3 38
e 3 36
e 3 34
e 3 33
e 3 23
e 3 14
e 3 6
e 4 80
e 4 65
e 4 63
e 4 48
e 4 47
e 4 46
e 4 43
e 4 39
e 4 38
e 4 29
e 4 23
e 4 17
e 4 14
e 4 10
e 5 77
e 5 75
e 5 66
e 5 58
e 5 56
e 5 55
e 5 53
e 5 51
e 5 50
e 5 45
e 5 44
e 5 41
e 5 31
e 5 21
e 5 20
e 5 12
e 5 11
e 5 9
e 6 64
e 6 60
e 6 58
e 6 55
e 6 53
e 6 44
e 6 32
e 6 30
e 6 28
e 6 27
e 6 15
e 6 12
e 6 11
e 6 9
e 7 76
e 7 72
e 7 61
e 7 48
e 7 46
e 7 43
e 7 34
e 7 33
e 7 29
e 7 17
e 7 14
e 8 74
e 8 73
e 8 69
e 8 68
e 8 61
e 8 54
e 8 52
e 8 49
e 8 46
e 8 38
e 8 37
e 8 36
e 8 34
e 8 33
e 8 18
e 8 14
e 9 80
e 9 74
e 9 72
e 9 65
e 9 63
e 9 61
e 9 59
e 9 40
e 9 39
e 9 34
e 9 17
e 9 10
e 10 77
e 10 71
e 10 70
e 10 67
e 10 64
e 10 60
e 10 57
e 10 45
e 10 44
e 10 41
e 10 30
e 10 25
e 10 24
e 10 16
e 10 13
e 10 12
e 11 80
e 11 73
e 11 65
e 11 63
e 11 59
e 11 49
e 11 48
e 11 47
e 11 40
e 11 39
e 11 37
e 11 36
e 11 35
e 11 34
e 11 33
e 11 29
e 11 23
e 11 19
e 11 18
e 11 17
e 12 72
e 12 69
e 12 63
e 12 61
e 12 54
e 12 46
e 12 43
e 12 40
e 12 37
e 12 35
e 12 23
e 12 18
e 12 17
e 12 14
e 13 74
e 13 73
e 13 69
e 13 68
e 13 48
e 13 47
e 13 46
e 13 34
e 13 33
e 13 17
e 14 77
e 14 71
e 14 70
e 14 58
e 14 57
e 14 55
e 14 50
e 14 42
e 14 32
e 14 30
e 14 28
e 14 26
e 14 24
e 14 22
e 14 21
e 15 80
e 15 72
e 15 69
e 15 68
e 15 59
e 15 52
e 15 49
e 15 48
e 15 46
e 15 38
e 15 35
e 15 34
e 15 23
e 15 19
e 15 18
e 15 17
e 16 80
e 16 76
e 16 69
e 16 62
e 16 59
e 16 54
e 16 47
e 16 46
e 16 38
e 16 37
e 16 36
e 16 34
e 16 33
e 16 23
e 16 18
e 16 17
e 17 78
e 17 71
e 17 66
e 17 58
e 17 57
e 17 55
e 17 51
e 17 31
e 17 30
e 17 28
e 17 25
e 17 21
e 17 20
e 18 79
e 18 75
e 18 71
e 18 60
e 18 57
e 18 55
e 18 45
e 18 42
e 18 28
e 18 27
e 18 26
e 18 20
e 19 79
e 19 78
e 19 77
e 19 60
e 19 57
e 19 55
e 19 51
e 19 41
e 19 22
e 19 20
e 20 74
e 20 69
e 20 46
e 20 38
e 20 34
e 20 33
e 20 29
e 20 23
e 21 74
e 21 65
e 21 63
e 21 49
e 21 46
e 21 38
e 21 37
e 21 35
e 21 34
e 22 80
e 22 76
e 22 69
e 22 68
e 22 61
e 22 49
e 22 40
e 22 39
e 22 38
e 22 36
e 22 23
e 23 75
e 23 66
e 23 60
e 23 56
e 23 51
e 23 50
e 23 45
e 23 44
e 23 42
e 23 41
e 23 31
e 23 30
e 23 25
e 23 24
e 24 80
e 24 74
e 24 73
e 24 65
e 24 62
e 24 52
e 24 46
e 24 43
e 24 34
e 24 29
e 25 76
e 25 72
e 25 65
e 25 62
e 25 54
e 25 38
e 25 37
e 25 34
e 25 33
e 26 80
e 26 74
e 26 69
e 26 68
e 26 65
e 26 59
e 26 54
e 26 49
e 26 47
e 26 43
e 26 40
e 26 34
e 26 33
e 26 29
e 27 73
e 27 68
e 27 63
e 27 61
e 27 38
e 27 36
e 27 35
e 28 73
e 28 72
e 28 68
e 28 65
e 28 63
e 28 62
e 28 54
e 28 52
e 28 46
e 28 40
e 28 38
e 28 34
e 28 33
e 28 29
e 29 78
e 29 71
e 29 64
e 29 60
e 29 58
e 29 50
e 29 42
e 30 76
e 30 68
e 30 63
e 30 62
e 30 52
e 30 49
e 30 48
e 30 46
e 30 38
e 30 37
e 30 36
e 30 33
e 31 80
e 31 76
e 31 74
e 31 72
e 31 69
e 31 63
e 31 59
e 31 48
e 31 46
e 31 40
e 31 39
e 31 35
e 32 80
e 32 73
e 32 72
e 32 68
e 32 63
e 32 62
e 32 59
e 32 54
e 32 40
e 32 39
e 32 36
e 32 35
e 33 75
e 33 70
e 33 64
e 33 60
e 33 53
e 33 50
e 33 42
e 34 79
e 34 71
e 34 64
e 34 58
e 34 56
e 34 53
e 34 50
e 34 44
e 34 42
e 35 77
e 35 71
e 35 70
e 35 66
e 35 64
e 35 55
e 35 53
e 35 51
e 35 44
e 36 78
e 36 75
e 36 67
e 36 66
e 36 58
e 36 56
e 36 51
e 36 50
e 36 45
e 36 44
e 36 42
e 37 78
e 37 75
e 37 66
e 37 64
e 37 60
e 37 57
e 37 55
e 37 42
e 38 66
e 38 64
e 38 58
e 38 53
e 38 45
e 38 41
e 39 78
e 39 77
e 39 71
e 39 70
e 39 64
e 39 60
e 39 56
e 39 51
e 39 42
e 40 77
e 40 71
e 40 67
e 40 60
e 40 57
e 40 53
e 40 51
e 40 44
e 40 41
e 41 80
e 41 74
e 41 69
e 41 63
e 41 62
e 41 52
e 41 48
e 42 80
e 42 76
e 42 74
e 42 69
e 42 65
e 42 62
e 42 61
e 42 59
e 42 54
e 42 52
e 42 43
e 43 78
e 43 75
e 43 71
e 43 67
e 43 66
e 43 58
e 43 51
e 43 45
e 43 44
e 44 80
e 44 76
e 44 74
e 44 73
e 44 69
e 44 63
e 44 59
e 44 49
e 44 48
e 45 69
e 45 61
e 45 48
e 45 46
e 46 78
e 46 75
e 46 58
e 46 51
e 47 75
e 47 58
e 47 57
e 47 56
e 47 55
e 48 79
e 48 75
e 48 70
e 48 67
e 48 58
e 48 57
e 48 55
e 48 53
e 49 77
e 49 71
e 49 57
e 49 56
e 49 55
e 49 53
e 49 51
e 49 50
e 50 74
e 50 73
e 50 72
e 50 69
e 50 65
e 50 59
e 51 76
e 51 73
e 51 72
e 51 69
e 51 65
e 51 62
e 51 61
e 51 52
e 52 79
e 52 70
e 52 67
e 52 66
e 52 57
e 52 55
e 52 53
e 53 80
e 53 76
e 53 73
e 53 69
e 53 63
e 53 61
e 54 79
e 54 78
e 54 75
e 54 70
e 54 64
e 54 60
e 54 57
e 54 55
e 55 80
e 55 63
e 55 61
e 55 59
e 56 74
e 56 73
e 56 72
e 56 69
e 56 68
e 57 80
e 57 74
e 57 69
e 58 68
e 58 63
e 58 62
e 58 59
e 59 78
e 59 75
e 59 70
e 60 68
e 60 65
e 61 79
e 61 77
e 61 71
e 61 70
e 61 67
e 61 66
e 62 79
e 62 78
e 62 70
e 62 66
e 62 64
e 63 78
e 63 77
e 63 71
e 64 80
e 64 74
e 64 73
e 64 65
e 65 78
e 65 77
e 65 71
e 65 67
e 65 66
e 66 80
e 66 72
e 67 74
e 67 73
e 67 72
e 68 79
e 68 77
e 68 75
e 68 71
e 68 70
e 69 79
e 69 77
e 69 75
e 69 70
e 70 73
e 71 80
e 71 76
e 71 74
e 71 72
e 72 75
e 73 79
e 74 77
e 74 75
e 75 80
e 75 76
e 76 78
e 76 77
e 77 80
e 78 80
